# 3d Lennard-Jones melt
pair_style	lj/cut 2.5
atom_style	atomic
read_data "lj.rho0.96999999999999997335.T01.3999999999999999112.data"

neighbor	0.3 bin 
neigh_modify	every 20 delay 0 check no

dump		traj all custom 1000 dump.data id x y z
fix		1 all nve
thermo		1000
run		200000

write_data      T01.5_nve.data

